50
457
10
21
59
23
47
33
11
83
95
2
34
0 4
0 8
0 11
0 12
0 16
0 19
0 21
0 22
0 28
0 29
0 30
0 38
0 39
0 41
0 44
0 46
0 47
1 7
1 11
1 12
1 13
1 15
1 19
1 23
1 26
1 28
1 30
1 32
1 35
1 38
1 41
1 45
2 3
2 6
2 8
2 9
2 11
2 18
2 21
2 22
2 25
2 28
2 31
2 34
2 36
2 39
2 43
2 44
2 46
2 48
3 4
3 7
3 15
3 26
3 29
3 33
3 34
3 38
3 39
3 44
4 5
4 6
4 7
4 13
4 17
4 18
4 19
4 20
4 21
4 24
4 26
4 27
4 28
4 29
4 30
4 31
4 35
4 40
4 43
4 45
5 6
5 8
5 9
5 14
5 15
5 17
5 18
5 21
5 23
5 25
5 27
5 28
5 32
5 33
5 35
5 37
5 38
5 43
5 46
6 11
6 14
6 15
6 16
6 17
6 22
6 23
6 27
6 28
6 29
6 30
6 31
6 32
6 33
6 34
6 35
6 36
6 38
6 39
6 40
6 43
6 49
7 11
7 14
7 16
7 18
7 20
7 24
7 29
7 31
7 32
7 34
7 37
7 38
7 44
7 45
7 49
8 10
8 12
8 14
8 16
8 18
8 19
8 22
8 26
8 29
8 39
8 40
8 47
8 48
9 14
9 23
9 24
9 25
9 26
9 30
9 31
9 36
9 38
9 40
9 42
9 44
9 45
9 49
10 11
10 17
10 21
10 23
10 25
10 28
10 31
10 36
10 37
10 44
10 48
10 49
11 12
11 14
11 16
11 21
11 22
11 26
11 31
11 39
11 41
11 42
11 44
11 49
12 13
12 14
12 16
12 18
12 19
12 21
12 23
12 24
12 25
12 26
12 27
12 29
12 30
12 33
12 35
12 36
12 38
12 42
12 43
12 46
12 47
12 49
13 14
13 23
13 25
13 27
13 33
13 34
13 36
13 39
13 42
13 44
13 46
13 47
13 49
14 18
14 19
14 22
14 25
14 26
14 40
14 41
14 44
14 46
15 17
15 18
15 23
15 27
15 28
15 32
15 33
15 41
15 43
15 44
15 45
15 46
15 49
16 26
16 31
16 33
16 37
16 45
17 18
17 21
17 22
17 23
17 24
17 25
17 27
17 34
17 39
17 40
17 43
17 44
17 47
17 48
18 19
18 25
18 26
18 27
18 28
18 36
18 38
18 42
18 44
18 45
18 47
19 21
19 24
19 31
19 35
19 37
19 42
19 43
19 44
19 48
20 24
20 28
20 31
20 32
20 33
20 34
20 36
20 37
20 38
20 41
20 46
20 48
20 49
21 26
21 31
21 32
21 33
21 34
21 36
21 38
21 40
21 41
21 42
21 47
22 23
22 24
22 26
22 27
22 28
22 30
22 33
22 36
22 39
22 40
22 43
22 46
23 25
23 26
23 29
23 31
23 32
23 33
23 41
23 42
23 44
23 45
23 46
24 27
24 32
24 36
24 37
24 39
24 46
24 47
24 48
25 27
25 29
25 32
25 33
25 35
25 36
25 37
25 38
25 42
25 43
25 44
25 45
25 46
25 49
26 27
26 28
26 41
26 43
26 45
27 28
27 40
27 42
27 43
27 44
27 46
28 29
28 30
28 35
28 36
28 39
28 43
28 46
28 47
28 49
29 30
29 32
29 33
29 34
29 35
29 39
29 40
29 42
29 43
29 44
30 32
30 33
30 35
30 36
30 39
30 40
30 42
30 46
30 47
30 49
31 35
31 36
31 37
31 39
31 40
31 43
32 33
32 41
32 45
32 48
33 39
33 40
33 44
33 46
34 35
34 37
34 39
34 41
34 45
34 46
34 48
35 41
35 42
35 43
35 44
35 45
35 46
35 48
36 37
36 39
36 42
36 45
36 46
36 47
36 49
37 38
37 44
37 47
37 49
38 40
38 41
38 43
38 45
38 46
38 47
38 48
38 49
39 41
39 45
39 46
39 47
39 48
39 49
41 47
42 44
42 47
42 49
43 46
43 47
43 48
44 45
44 47
44 48
45 48
46 49
2 25 36 41 48
1 37 13 46 4
42 30 29 49 21
11 26 18 17 22
27 15 31 8 0
16 9 39 19 47
45 33 7 20 10
6 34 23 32 14
38 12 44 40 35
28 3 43 24 5
